NAME: Diplomski263
COMMENT: Simetricni TSP, klastering + CUDA
TYPE: TSP
DIMENSION: 263
EDGE_WEIGHT_TYPE : EUC_2D
NOD_COORD_SECTION
1 266.914 -19.574 
2 256.754 -19.574 
3 246.594 -19.574 
4 236.434 -19.574 
5 226.274 -19.574 
6 216.114 -19.574 
7 205.954 -19.574 
8 195.794 -19.574 
9 185.634 -19.574 
10 175.474 -19.574 
11 165.314 -19.574 
12 155.154 -19.574 
13 144.994 -19.574 
14 134.834 -19.574 
15 124.674 -19.574 
16 124.674 -29.574 
17 129.754 -33.29 
18 134.834 -33.29 
19 134.834 -29.574 
20 139.914 -33.29 
21 144.994 -33.29 
22 144.994 -29.574 
23 150.074 -33.29 
24 155.154 -33.29 
25 155.154 -29.574 
26 160.234 -33.29 
27 165.314 -33.29 
28 165.314 -29.574 
29 170.394 -33.29 
30 175.474 -33.29 
31 175.474 -29.574 
32 180.554 -33.29 
33 185.634 -33.29 
34 185.634 -29.574 
35 190.714 -33.29 
36 195.794 -33.29 
37 195.794 -29.574 
38 200.874 -33.29 
39 205.954 -33.29 
40 205.954 -29.574 
41 211.034 -33.29 
42 216.114 -33.29 
43 216.114 -29.574 
44 221.194 -33.29 
45 226.274 -33.29 
46 226.274 -29.574 
47 231.354 -33.29 
48 236.434 -33.29 
49 236.434 -29.574 
50 241.514 -33.29 
51 246.594 -33.29 
52 246.594 -29.574 
53 251.674 -33.29 
54 256.754 -33.29 
55 256.754 -29.574 
56 261.834 -33.29 
57 266.914 -33.29 
58 266.914 -29.574 
59 271.994 -33.29 
60 277.074 -33.29 
61 277.074 -43.45 
62 277.074 -47.768 
63 271.994 -47.768 
64 271.994 -43.45 
65 266.914 -43.45 
66 266.914 -47.768 
67 261.834 -47.768 
68 261.834 -43.45 
69 256.754 -43.45 
70 256.754 -47.768 
71 251.674 -47.768 
72 251.674 -43.45 
73 246.594 -43.45 
74 246.594 -47.768 
75 241.514 -47.768 
76 241.514 -43.45 
77 236.434 -43.45 
78 236.434 -47.768 
79 231.354 -47.768 
80 231.354 -43.45 
81 226.274 -43.45 
82 226.274 -47.768 
83 221.194 -47.768 
84 221.194 -43.45 
85 216.114 -43.45 
86 216.114 -47.768 
87 211.034 -47.768 
88 211.034 -43.45 
89 205.954 -43.45 
90 205.954 -47.768 
91 200.874 -47.768 
92 200.874 -43.45 
93 195.794 -43.45 
94 195.794 -47.768 
95 190.714 -47.768 
96 190.714 -43.45 
97 185.634 -43.45 
98 185.634 -47.768 
99 180.554 -47.768 
100 180.554 -43.45 
101 175.474 -43.45 
102 175.474 -47.768 
103 170.394 -47.768 
104 170.394 -43.45 
105 165.314 -43.45 
106 165.314 -47.768 
107 160.234 -47.768 
108 160.234 -43.45 
109 155.154 -43.45 
110 155.154 -47.768 
111 150.074 -47.768 
112 150.074 -43.45 
113 144.994 -43.45 
114 144.994 -47.768 
115 139.914 -47.768 
116 139.914 -43.45 
117 134.834 -43.45 
118 134.834 -47.768 
119 129.754 -47.768 
120 129.754 -43.45 
121 129.754 -57.928 
122 129.754 -61.484 
123 134.834 -57.928 
124 139.914 -57.928 
125 139.914 -61.484 
126 144.994 -57.928 
127 150.074 -57.928 
128 150.074 -61.484 
129 155.154 -57.928 
130 160.234 -57.928 
131 160.234 -61.484 
132 165.314 -57.928 
133 170.394 -57.928 
134 170.394 -61.484 
135 175.474 -57.928 
136 180.554 -57.928 
137 180.554 -61.484 
138 185.634 -57.928 
139 190.714 -57.928 
140 190.714 -61.484 
141 195.794 -57.928 
142 200.874 -57.928 
143 200.874 -61.484 
144 205.954 -57.928 
145 211.034 -57.928 
146 211.034 -61.484 
147 216.114 -57.928 
148 221.194 -57.928 
149 221.194 -61.484 
150 226.274 -57.928 
151 231.354 -57.928 
152 231.354 -61.484 
153 236.434 -57.928 
154 241.514 -57.928 
155 241.514 -61.484 
156 246.594 -57.928 
157 251.674 -57.928 
158 251.674 -61.484 
159 256.754 -57.928 
160 261.834 -57.928 
161 261.834 -61.484 
162 266.914 -57.928 
163 271.994 -57.928 
164 271.994 -61.484 
165 277.074 -57.928 
166 271.994 -71.484 
167 271.78 -74.422 
168 271.78 -84.582 
169 267.97 -84.582 
170 261.834 -71.484 
171 251.674 -71.484 
172 241.514 -71.484 
173 231.354 -71.484 
174 221.194 -71.484 
175 211.034 -71.484 
176 200.874 -71.484 
177 190.714 -71.484 
178 180.554 -71.484 
179 170.394 -71.484 
180 160.234 -71.484 
181 150.074 -71.484 
182 139.914 -71.484 
183 129.754 -71.484 
184 121.0 -81.0 
185 114.006 -79.452 
186 114.006 -74.452 
187 114.006 -69.452 
188 114.006 -64.452 
189 114.006 -59.452 
190 114.006 -44.4 
191 114.006 -39.4 
192 114.006 -34.4 
193 114.006 -29.4 
194 114.006 -24.4 
195 94.006 -24.4 
196 94.006 -29.4 
197 94.006 -34.4 
198 94.006 -39.4 
199 94.006 -44.4 
200 94.006 -59.452 
201 94.006 -64.452 
202 94.006 -69.452 
203 94.006 -74.452 
204 94.006 -79.452 
205 88.606 -84.09 
206 84.034 -79.518 
207 84.034 -76.978 
208 84.034 -74.438 
209 75.398 -73.93 
210 75.398 -76.47 
211 75.398 -79.01 
212 75.398 -81.55 
213 78.446 -84.09 
214 75.398 -71.39 
215 75.398 -68.85 
216 75.398 -66.31 
217 75.398 -63.77 
218 75.398 -61.23 
219 75.398 -58.69 
220 75.398 -56.15 
221 75.398 -53.61 
222 75.398 -51.07 
223 75.398 -48.53 
224 75.398 -45.99 
225 75.43 -38.06 
226 81.494 -25.924 
227 81.494 -23.384 
228 81.494 -20.844 
229 87.336 -19.32 
230 87.336 -29.48 
231 65.786 -24.892 
232 59.436 -30.226 
233 55.078 -36.084 
234 60.19 -38.06 
235 60.158 -45.99 
236 60.158 -48.53 
237 60.158 -51.07 
238 60.158 -53.61 
239 60.158 -56.15 
240 60.158 -58.69 
241 60.158 -61.23 
242 60.158 -63.77 
243 60.158 -66.31 
244 60.158 -68.85 
245 60.158 -71.39 
246 60.158 -73.93 
247 60.158 -76.47 
248 60.158 -79.01 
249 60.158 -81.55 
250 47.498 -87.122 
251 44.958 -87.122 
252 42.418 -87.122 
253 39.878 -87.122 
254 25.654 -61.976 
255 18.288 -61.976 
256 18.288 -40.894 
257 25.654 -40.894 
258 30.44 -36.084 
259 40.6 -36.084 
260 44.918 -36.084 
261 53.34 -24.892 
262 45.72 -19.558 
263 33.0 -17.0 
